Minimize
  - 16 y_1 - 14 y_2 - 6 y_3 - 12 y_4 - 12 y_5 - 11 y_6 - 9 y_7 - 9 y_8
   - 13 y_9 + 62 x_0_1 + 57 x_0_2 + 24 x_0_3 + 49 x_0_4 + 47 x_0_5
   + 43 x_0_6 + 8 x_1_2 + 55 x_1_4 + 57 x_1_5 + 75 x_1_8 + 49 x_2_5
   + 99 x_2_6 + 73 x_2_8 + 39 x_2_9 + 23 x_3_5 + 64 x_3_6 + 57 x_3_7
   + 59 x_3_8 + 58 x_3_9 + 55 x_4_1 + 4 x_4_5 + 86 x_4_6 + 78 x_4_7
   + 84 x_4_8 + 74 x_4_9 + 83 x_5_6 + 74 x_5_9 + 85 x_6_9 + 47 x_7_8
   + 83 x_7_9 + 45 x_8_9 + 45 x_8_9 + 45 x_8_9 + 45 x_8_9 + 45 x_8_9
   + 45 x_8_9 + 45 x_8_9 + 45 x_8_9 + 45 x_8_9 + 45 x_8_9 + 45 x_8_9
   + 45 x_8_9 + 45 x_8_9 + 45 x_8_9 + 45 x_8_9 + 45 x_8_9 + 45 x_8_9
   + 45 x_8_9 + 45 x_8_9 + 45 x_8_9 + 45 x_8_9 + 45 x_8_9 + 45 x_8_9
   + 45 x_8_9 + 45 x_8_9 + 45 x_8_9 + 45 x_8_9 + 45 x_8_9 + 45 x_8_9
   + 45 x_8_9 + 45 x_8_9 + 45 x_8_9 + 45 x_8_9 + 45 x_8_9 + 45 x_8_9
   + 45 x_8_9 + 45 x_8_9 + 45 x_8_9 + 45 x_8_9 + 45 x_8_9 + 45 x_8_9
   + 45 x_8_9 + 45 x_8_9 + 45 x_8_9 + 45 x_8_9 + 45 x_8_9 + 45 x_8_9
   + 45 x_8_9 + 45 x_8_9 + 45 x_8_9 + 45 x_8_9 + 45 x_8_9 + 45 x_8_9
   + 45 x_8_9 + 45 x_8_9 + 45 x_8_9 + 45 x_8_9 + 45 x_8_9 + 45 x_8_9
   + 45 x_8_9 + 45 x_8_9 + 45 x_8_9 + 45 x_8_9 + 45 x_8_9 + 45 x_8_9
   + 45 x_8_9 + 45 x_8_9 + 45 x_8_9 + 45 x_8_9 + 45 x_8_9 + 45 x_8_9
   + 45 x_8_9 + 45 x_8_9 + 45 x_8_9 + 45 x_8_9 + 45 x_8_9 + 45 x_8_9
   + 45 x_8_9 + 45 x_8_9 + 45 x_8_9 + 45 x_8_9 + 45 x_8_9 + 45 x_8_9
   + 45 x_8_9 + 45 x_8_9 + 45 x_8_9 + 45 x_8_9 + 45 x_8_9 + 45 x_8_9
   + 45 x_8_9 + 45 x_8_9 + 45 x_8_9 + 45 x_8_9 + 45 x_8_9 + 45 x_8_9
   + 45 x_8_9 + 45 x_8_9 + 45 x_8_9 + 45 x_8_9 + 45 x_8_9 + 45 x_8_9
   + 45 x_8_9 + 45 x_8_9 + 45 x_8_9 + 45 x_8_9 + 45 x_8_9 + 45 x_8_9
   + 45 x_8_9 + 45 x_8_9 + 45 x_8_9 + 45 x_8_9 + 45 x_8_9 + 45 x_8_9
   + 45 x_8_9 + 45 x_8_9 + 45 x_8_9 + 45 x_8_9 + 45 x_8_9 + 45 x_8_9
   + 45 x_8_9 + 45 x_8_9 + 45 x_8_9 + 45 x_8_9 + 45 x_8_9 + 45 x_8_9
   + 45 x_8_9 + 45 x_8_9 + 45 x_8_9 + 45 x_8_9 + 45 x_8_9 + 45 x_8_9
   + 45 x_8_9 + 45 x_8_9 + 45 x_8_9 + 45 x_8_9 + 45 x_8_9 + 45 x_8_9
   + 45 x_8_9 + 45 x_8_9 + 45 x_8_9 + 45 x_8_9 + 45 x_8_9 + 45 x_8_9
   + 45 x_8_9 + 45 x_8_9 + 45 x_8_9 + 45 x_8_9 + 45 x_8_9 + 45 x_8_9
   + 45 x_8_9 + 45 x_8_9 + 45 x_8_9 + 45 x_8_9 + 45 x_8_9 + 45 x_8_9
   + 45 x_8_9 + 45 x_8_9 + 45 x_8_9 + 45 x_8_9 + 45 x_8_9 + 45 x_8_9
   + 45 x_8_9 + 45 x_8_9 + 45 x_8_9 + 45 x_8_9 + 45 x_8_9 + 45 x_8_9
   + 45 x_8_9 + 45 x_8_9 + 45 x_8_9 + 45 x_8_9 + 45 x_8_9 + 45 x_8_9
   + 45 x_8_9 + 45 x_8_9 + 45 x_8_9 + 45 x_8_9 + 45 x_8_9 + 45 x_8_9
   + 45 x_8_9 + 45 x_8_9 + 45 x_8_9 + 45 x_8_9 + 45 x_8_9 + 45 x_8_9
   + 45 x_8_9 + 45 x_8_9 + 45 x_8_9 + 45 x_8_9 + 45 x_8_9 + 45 x_8_9
   + 45 x_8_9 + 45 x_8_9 + 45 x_8_9 + 45 x_8_9 + 45 x_8_9 + 45 x_8_9
   + 45 x_8_9 + 45 x_8_9 + 45 x_8_9 + 45 x_8_9 + 45 x_8_9 + 45 x_8_9
   + 45 x_8_9 + 45 x_8_9 + 45 x_8_9 + 45 x_8_9 + 45 x_8_9 + 45 x_8_9
   + 45 x_8_9 + 45 x_8_9 + 45 x_8_9 + 45 x_8_9 + 45 x_8_9 + 45 x_8_9
   + 45 x_8_9 + 45 x_8_9 + 45 x_8_9 + 45 x_8_9 + 45 x_8_9 + 45 x_8_9
   + 45 x_8_9 + 45 x_8_9 + 45 x_8_9 + 45 x_8_9 + 45 x_8_9 + 45 x_8_9
   + 45 x_8_9 + 45 x_8_9 + 45 x_8_9 + 45 x_8_9 + 45 x_8_9 + 45 x_8_9
   + 45 x_8_9 + 45 x_8_9 + 45 x_8_9 + 45 x_8_9 + 45 x_8_9 + 45 x_8_9
   + 45 x_8_9 + 45 x_8_9 + 45 x_8_9 + 45 x_8_9 + 45 x_8_9 + 45 x_8_9
   + 45 x_8_9 + 45 x_8_9 + 45 x_8_9 + 45 x_8_9 + 45 x_8_9 + 45 x_8_9
   + 45 x_8_9 + 45 x_8_9 + 45 x_8_9 + 45 x_8_9 + 45 x_8_9 + 45 x_8_9
   + 45 x_8_9 + 45 x_8_9 + 45 x_8_9 + 45 x_8_9 + 45 x_8_9 + 45 x_8_9
   + 45 x_8_9 + 45 x_8_9 + 45 x_8_9 + 45 x_8_9 + 45 x_8_9 + 45 x_8_9
   + 45 x_8_9 + 45 x_8_9 + 45 x_8_9 + 45 x_8_9 + 45 x_8_9 + 45 x_8_9
   + 45 x_8_9 + 45 x_8_9 + 45 x_8_9 + 45 x_8_9 + 45 x_8_9 + 45 x_8_9
   + 45 x_8_9 + 45 x_8_9 + 45 x_8_9 + 102 Constant
Subject To
 c_0: y_0 = 1
 c_1_0: y_0 >= 1
 c_1_1: y_1 >= 1
 c_1_2: y_2 >= 1
 c_1_3: y_3 >= 1
 c_1_4: y_4 >= 1
 c_1_5: y_5 >= 1
 c_1_6: y_6 >= 1
 c_1_7: y_7 >= 1
 c_1_8: y_8 >= 1
 c_1_9: y_9 >= 1
 c_2_0: - 2 y_0 + x_0_1 + x_0_2 + x_0_3 + x_0_4 + x_0_5 + x_0_6 = 0
 c_2_1: - 2 y_1 + x_0_1 + x_1_2 + x_1_5 + x_1_8 + 2 x_4_1 = 0
 c_2_2: - 2 y_2 + x_0_2 + x_1_2 + x_2_5 + x_2_6 + x_2_8 + x_2_9 = 0
 c_2_3: - 2 y_3 + x_0_3 + x_3_5 + x_3_6 + x_3_7 + x_3_8 + x_3_9 = 0
 c_2_4: - 2 y_4 + x_0_4 + 2 x_4_1 + x_4_5 + x_4_6 + x_4_7 + x_4_8 + x_4_9
   = 0
 c_2_5: - 2 y_5 + x_0_5 + x_1_5 + x_2_5 + x_3_5 + x_4_5 + x_5_6 + x_5_9
   = 0
 c_2_6: - 2 y_6 + x_0_6 + x_2_6 + x_3_6 + x_4_6 + x_5_6 + x_6_9 = 0
 c_2_7: - 2 y_7 + x_3_7 + x_4_7 + x_7_8 + x_7_9 = 0
 c_2_8: - 2 y_8 + x_1_8 + x_2_8 + x_3_8 + x_4_8 + x_7_8 + 284 x_8_9 = 0
 c_2_9: - 2 y_9 + x_2_9 + x_3_9 + x_4_9 + x_5_9 + x_6_9 + x_7_9 + 284 x_8_9
   = 0
Bounds
 Constant = 1
Binaries
 y_0 y_1 y_2 y_3 y_4 y_5 y_6 y_7 y_8 y_9 x_0_1 x_0_2 x_0_3 x_0_4 x_0_5
 x_0_6 x_1_2 x_1_4 x_1_5 x_1_8 x_2_5 x_2_6 x_2_8 x_2_9 x_3_5 x_3_6 x_3_7
 x_3_8 x_3_9 x_4_1 x_4_5 x_4_6 x_4_7 x_4_8 x_4_9 x_5_6 x_5_9 x_6_9 x_7_8
 x_7_9 x_8_9 x_8_9 x_8_9 x_8_9 x_8_9 x_8_9 x_8_9 x_8_9 x_8_9 x_8_9 x_8_9
 x_8_9 x_8_9 x_8_9 x_8_9 x_8_9 x_8_9 x_8_9 x_8_9 x_8_9 x_8_9 x_8_9 x_8_9
 x_8_9 x_8_9 x_8_9 x_8_9 x_8_9 x_8_9 x_8_9 x_8_9 x_8_9 x_8_9 x_8_9 x_8_9
 x_8_9 x_8_9 x_8_9 x_8_9 x_8_9 x_8_9 x_8_9 x_8_9 x_8_9 x_8_9 x_8_9 x_8_9
 x_8_9 x_8_9 x_8_9 x_8_9 x_8_9 x_8_9 x_8_9 x_8_9 x_8_9 x_8_9 x_8_9 x_8_9
 x_8_9 x_8_9 x_8_9 x_8_9 x_8_9 x_8_9 x_8_9 x_8_9 x_8_9 x_8_9 x_8_9 x_8_9
 x_8_9 x_8_9 x_8_9 x_8_9 x_8_9 x_8_9 x_8_9 x_8_9 x_8_9 x_8_9 x_8_9 x_8_9
 x_8_9 x_8_9 x_8_9 x_8_9 x_8_9 x_8_9 x_8_9 x_8_9 x_8_9 x_8_9 x_8_9 x_8_9
 x_8_9 x_8_9 x_8_9 x_8_9 x_8_9 x_8_9 x_8_9 x_8_9 x_8_9 x_8_9 x_8_9 x_8_9
 x_8_9 x_8_9 x_8_9 x_8_9 x_8_9 x_8_9 x_8_9 x_8_9 x_8_9 x_8_9 x_8_9 x_8_9
 x_8_9 x_8_9 x_8_9 x_8_9 x_8_9 x_8_9 x_8_9 x_8_9 x_8_9 x_8_9 x_8_9 x_8_9
 x_8_9 x_8_9 x_8_9 x_8_9 x_8_9 x_8_9 x_8_9 x_8_9 x_8_9 x_8_9 x_8_9 x_8_9
 x_8_9 x_8_9 x_8_9 x_8_9 x_8_9 x_8_9 x_8_9 x_8_9 x_8_9 x_8_9 x_8_9 x_8_9
 x_8_9 x_8_9 x_8_9 x_8_9 x_8_9 x_8_9 x_8_9 x_8_9 x_8_9 x_8_9 x_8_9 x_8_9
 x_8_9 x_8_9 x_8_9 x_8_9 x_8_9 x_8_9 x_8_9 x_8_9 x_8_9 x_8_9 x_8_9 x_8_9
 x_8_9 x_8_9 x_8_9 x_8_9 x_8_9 x_8_9 x_8_9 x_8_9 x_8_9 x_8_9 x_8_9 x_8_9
 x_8_9 x_8_9 x_8_9 x_8_9 x_8_9 x_8_9 x_8_9 x_8_9 x_8_9 x_8_9 x_8_9 x_8_9
 x_8_9 x_8_9 x_8_9 x_8_9 x_8_9 x_8_9 x_8_9 x_8_9 x_8_9 x_8_9 x_8_9 x_8_9
 x_8_9 x_8_9 x_8_9 x_8_9 x_8_9 x_8_9 x_8_9 x_8_9 x_8_9 x_8_9 x_8_9 x_8_9
 x_8_9 x_8_9 x_8_9 x_8_9 x_8_9 x_8_9 x_8_9 x_8_9 x_8_9 x_8_9 x_8_9 x_8_9
 x_8_9 x_8_9 x_8_9 x_8_9 x_8_9 x_8_9 x_8_9 x_8_9 x_8_9 x_8_9 x_8_9 x_8_9
 x_8_9 x_8_9 x_8_9 x_8_9 x_8_9 x_8_9 x_8_9 x_8_9 x_8_9 x_8_9 x_8_9 x_8_9
 x_8_9 x_8_9 x_8_9 x_8_9 x_8_9 x_8_9 x_8_9 x_8_9 x_8_9 x_8_9 x_8_9 x_8_9
 x_8_9 x_8_9 x_8_9 x_8_9 x_8_9 x_8_9 x_8_9 x_8_9 x_8_9
End
